
Gurobi 8.1.1 (linux64, Python) logging started Tue Nov 19 09:24:02 2019


Gurobi 8.1.1 (linux64, Python) logging started Tue Nov 19 09:25:53 2019


Gurobi 8.1.1 (linux64, Python) logging started Tue Nov 19 09:27:30 2019


Gurobi 8.1.1 (linux64, Python) logging started Tue Nov 19 09:28:48 2019


Gurobi 8.1.1 (linux64, Python) logging started Tue Nov 19 21:46:11 2019


Gurobi 8.1.1 (linux64, Python) logging started Wed Nov 20 10:27:10 2019


Gurobi 8.1.1 (linux64, Python) logging started Wed Nov 20 10:30:14 2019


Gurobi 8.1.1 (linux64, Python) logging started Wed Nov 20 10:39:48 2019


Gurobi 8.1.1 (linux64, Python) logging started Wed Nov 20 21:20:04 2019


Gurobi 8.1.1 (linux64, Python) logging started Wed Nov 20 21:20:24 2019


Gurobi 8.1.1 (linux64, Python) logging started Wed Nov 20 21:21:24 2019


Gurobi 8.1.1 (linux64, Python) logging started Wed Nov 20 21:23:05 2019


Gurobi 8.1.1 (linux64, Python) logging started Wed Nov 20 21:23:19 2019


Gurobi 8.1.1 (linux64, Python) logging started Wed Nov 20 21:43:37 2019


Gurobi 8.1.1 (linux64, Python) logging started Wed Nov 20 21:45:51 2019


Gurobi 8.1.1 (linux64, Python) logging started Wed Nov 20 21:48:27 2019


Gurobi 8.1.1 (linux64, Python) logging started Wed Nov 20 21:55:06 2019


Gurobi 8.1.1 (linux64, Python) logging started Wed Nov 20 21:57:29 2019


Gurobi 8.1.1 (linux64, Python) logging started Thu Nov 21 10:25:13 2019


Gurobi 8.1.1 (linux64, Python) logging started Thu Nov 21 11:05:04 2019


Gurobi 8.1.1 (linux64, Python) logging started Thu Nov 21 11:17:17 2019


Gurobi 8.1.1 (linux64, Python) logging started Thu Nov 21 11:29:36 2019


Gurobi 8.1.1 (linux64, Python) logging started Mon Nov 25 10:57:08 2019


Gurobi 8.1.1 (linux64, Python) logging started Mon Nov 25 15:07:08 2019


Gurobi 8.1.1 (linux64, Python) logging started Tue Nov 26 10:20:39 2019


Gurobi 8.1.1 (linux64, Python) logging started Tue Nov 26 13:47:29 2019


Gurobi 8.1.1 (linux64, Python) logging started Tue Nov 26 13:49:58 2019


Gurobi 8.1.1 (linux64, Python) logging started Thu Nov 28 15:49:17 2019


Gurobi 8.1.1 (linux64, Python) logging started Thu Nov 28 19:03:00 2019


Gurobi 8.1.1 (linux64, Python) logging started Tue Dec  3 12:20:50 2019


Gurobi 8.1.1 (linux64, Python) logging started Tue Dec  3 12:21:58 2019


Gurobi 8.1.1 (linux64, Python) logging started Tue Dec  3 17:06:31 2019


Gurobi 8.1.1 (linux64, Python) logging started Wed Dec  4 12:48:10 2019


Gurobi 8.1.1 (linux64, Python) logging started Wed Dec  4 16:35:36 2019


Gurobi 8.1.1 (linux64, Python) logging started Thu Dec  5 13:38:54 2019


Gurobi 8.1.1 (linux64, Python) logging started Thu Dec  5 14:05:44 2019


Gurobi 8.1.1 (linux64, Python) logging started Thu Dec  5 14:21:53 2019


Gurobi 8.1.1 (linux64, Python) logging started Thu Dec  5 14:29:08 2019


Gurobi 8.1.1 (linux64, Python) logging started Thu Dec  5 14:33:02 2019


Gurobi 8.1.1 (linux64, Python) logging started Thu Dec  5 14:54:07 2019


Gurobi 8.1.1 (linux64, Python) logging started Thu Dec  5 15:06:17 2019


Gurobi 8.1.1 (linux64, Python) logging started Thu Dec  5 16:41:30 2019


Gurobi 8.1.1 (linux64, Python) logging started Fri Dec 13 23:53:40 2019


Gurobi 8.1.1 (linux64, Python) logging started Sat Dec 14 20:19:42 2019


Gurobi 8.1.1 (linux64, Python) logging started Sat Dec 14 20:20:40 2019


Gurobi 8.1.1 (linux64, Python) logging started Sat Dec 14 20:37:53 2019


Gurobi 8.1.1 (linux64, Python) logging started Sat Dec 14 20:38:10 2019

